10
1 0 47
2 0 6
2 1 37
3 0 14
3 1 79
3 2 40
4 0 51
4 1 1
4 2 72
4 3 84
5 0 25
5 1 102
5 2 54
5 3 106
5 4 86
6 0 15
6 1 85
6 2 51
6 3 59
6 4 14
6 5 53
7 0 15
7 1 91
7 2 91
7 3 106
7 4 68
7 5 89
7 6 32
8 0 44
8 1 51
8 2 76
8 3 104
8 4 60
8 5 58
8 6 110
8 7 15
9 0 23
9 1 66
9 2 18
9 3 92
9 4 108
9 5 75
9 6 26
9 7 114
9 8 12
